% Logging successfully configured
%%%mzn-stat: initTime=0.003891634
%%%mzn-stat: objective=693
%%%mzn-stat: nodes=175
%%%mzn-stat: restarts=0
%%%mzn-stat: peakDepth=175
%%%mzn-stat: solveTime=0.000820159
%%%mzn-stat: variables=362
%%%mzn-stat: propagators=246
%%%mzn-stat: failures=0
%%%mzn-stat: propagations=833
%%%mzn-stat: nogoods=0
%%%mzn-stat: numAtomicConstraintsPropagated=0
%%%mzn-stat: circuitNumber1PropagationsTotal=34
%%%mzn-stat: circuitNumber1CircuitConflicts=0
%%%mzn-stat: circuitNumber1AlldiffConflicts=0
%%%mzn-stat: circuitNumber1TotalFixedEdgesAtConflict=0
%%%mzn-stat: circuitNumber1NumberOfConflicts=0
%%%mzn-stat: circuitNumber1GacPrunings=73
%%%mzn-stat: circuitNumber1PropagationsThatGacPruned=18
%%%mzn-stat: circuitNumber1TotalPruningHallSetSize=82
%%%mzn-stat: circuitNumber1NumberOfPruningExplanations=73
%%%mzn-stat: circuitNumber1MaxPruningHallSetSize=5
%%%mzn-stat: circuitNumber1TotalSccSizeAtPruning=28
%%%mzn-stat: circuitNumber1NumberOfSccPruningCalls=18
%%%mzn-stat: circuitNumber1TotalVarsInvolvedInPruning=72
%%%mzn-stat: circuitNumber1MaxValuesPrunedFromSingleVar=2
%%%mzn-stat: circuitNumber1HallCircuitChecks=31
%%%mzn-stat: circuitNumber1HallCircuitPrunings=9
%%%mzn-stat: circuitNumber1CircuitPreventPrunings=13
%%%mzn-stat: AverageConflictSize=0
%%%mzn-stat: NumUnitNogoodsLearned=0
%%%mzn-stat: AverageLearnedNogoodLength=0
%%%mzn-stat: AverageBacktrackAmount=0
%%%mzn-stat: AverageLbd=0
%%%mzn-stat: 2AutonomousSearchNumBackupCalled=159
%%%mzn-stat: 2AutonomousSearchNumPredicatesRemoved=0
%%%mzn-stat: 2AutonomousSearchNumCalls=160
%%%mzn-stat: 2AutonomousSearchNumPredicatesAdded=0
%%%mzn-stat: 2AutonomousSearchAverageSizeOfHeap=0
%%%mzn-stat: 2AutonomousSearchNumAssignedPredicatesEncountered=0
%%%mzn-stat-end
maxleg = 693;
succ = array1d(1..20,[2, 4, 5, 3, 7, 1, 8, 10, 6, 12, 9, 18, 16, 19, 13, 20, 15, 17, 11, 14]);
% time elapsed: 4.30 s
----------
%%%mzn-stat: initTime=0.003891634
%%%mzn-stat: objective=588
%%%mzn-stat: nodes=333
%%%mzn-stat: restarts=0
%%%mzn-stat: peakDepth=175
%%%mzn-stat: solveTime=0.001483235
%%%mzn-stat: variables=362
%%%mzn-stat: propagators=246
%%%mzn-stat: failures=0
%%%mzn-stat: propagations=1250
%%%mzn-stat: nogoods=0
%%%mzn-stat: numAtomicConstraintsPropagated=0
%%%mzn-stat: circuitNumber1PropagationsTotal=65
%%%mzn-stat: circuitNumber1CircuitConflicts=0
%%%mzn-stat: circuitNumber1AlldiffConflicts=0
%%%mzn-stat: circuitNumber1TotalFixedEdgesAtConflict=0
%%%mzn-stat: circuitNumber1NumberOfConflicts=0
%%%mzn-stat: circuitNumber1GacPrunings=146
%%%mzn-stat: circuitNumber1PropagationsThatGacPruned=34
%%%mzn-stat: circuitNumber1TotalPruningHallSetSize=166
%%%mzn-stat: circuitNumber1NumberOfPruningExplanations=146
%%%mzn-stat: circuitNumber1MaxPruningHallSetSize=5
%%%mzn-stat: circuitNumber1TotalSccSizeAtPruning=55
%%%mzn-stat: circuitNumber1NumberOfSccPruningCalls=34
%%%mzn-stat: circuitNumber1TotalVarsInvolvedInPruning=142
%%%mzn-stat: circuitNumber1MaxValuesPrunedFromSingleVar=2
%%%mzn-stat: circuitNumber1HallCircuitChecks=60
%%%mzn-stat: circuitNumber1HallCircuitPrunings=17
%%%mzn-stat: circuitNumber1CircuitPreventPrunings=25
%%%mzn-stat: AverageConflictSize=0
%%%mzn-stat: NumUnitNogoodsLearned=0
%%%mzn-stat: AverageLearnedNogoodLength=0
%%%mzn-stat: AverageBacktrackAmount=0
%%%mzn-stat: AverageLbd=0
%%%mzn-stat: 2AutonomousSearchNumBackupCalled=303
%%%mzn-stat: 2AutonomousSearchNumPredicatesRemoved=0
%%%mzn-stat: 2AutonomousSearchNumCalls=305
%%%mzn-stat: 2AutonomousSearchNumPredicatesAdded=0
%%%mzn-stat: 2AutonomousSearchAverageSizeOfHeap=0
%%%mzn-stat: 2AutonomousSearchNumAssignedPredicatesEncountered=0
%%%mzn-stat-end
maxleg = 588;
succ = array1d(1..20,[2, 4, 5, 3, 7, 1, 8, 10, 6, 12, 9, 18, 16, 19, 20, 14, 15, 17, 11, 13]);
% time elapsed: 4.30 s
----------
%%%mzn-stat: initTime=0.003891634
%%%mzn-stat: objective=519
%%%mzn-stat: nodes=488
%%%mzn-stat: restarts=0
%%%mzn-stat: peakDepth=175
%%%mzn-stat: solveTime=0.002112586
%%%mzn-stat: variables=362
%%%mzn-stat: propagators=246
%%%mzn-stat: failures=0
%%%mzn-stat: propagations=1668
%%%mzn-stat: nogoods=0
%%%mzn-stat: numAtomicConstraintsPropagated=0
%%%mzn-stat: circuitNumber1PropagationsTotal=93
%%%mzn-stat: circuitNumber1CircuitConflicts=0
%%%mzn-stat: circuitNumber1AlldiffConflicts=0
%%%mzn-stat: circuitNumber1TotalFixedEdgesAtConflict=0
%%%mzn-stat: circuitNumber1NumberOfConflicts=0
%%%mzn-stat: circuitNumber1GacPrunings=220
%%%mzn-stat: circuitNumber1PropagationsThatGacPruned=48
%%%mzn-stat: circuitNumber1TotalPruningHallSetSize=277
%%%mzn-stat: circuitNumber1NumberOfPruningExplanations=220
%%%mzn-stat: circuitNumber1MaxPruningHallSetSize=8
%%%mzn-stat: circuitNumber1TotalSccSizeAtPruning=86
%%%mzn-stat: circuitNumber1NumberOfSccPruningCalls=48
%%%mzn-stat: circuitNumber1TotalVarsInvolvedInPruning=210
%%%mzn-stat: circuitNumber1MaxValuesPrunedFromSingleVar=4
%%%mzn-stat: circuitNumber1HallCircuitChecks=85
%%%mzn-stat: circuitNumber1HallCircuitPrunings=21
%%%mzn-stat: circuitNumber1CircuitPreventPrunings=33
%%%mzn-stat: AverageConflictSize=0
%%%mzn-stat: NumUnitNogoodsLearned=0
%%%mzn-stat: AverageLearnedNogoodLength=0
%%%mzn-stat: AverageBacktrackAmount=0
%%%mzn-stat: AverageLbd=0
%%%mzn-stat: 2AutonomousSearchNumBackupCalled=445
%%%mzn-stat: 2AutonomousSearchNumPredicatesRemoved=0
%%%mzn-stat: 2AutonomousSearchNumCalls=448
%%%mzn-stat: 2AutonomousSearchNumPredicatesAdded=0
%%%mzn-stat: 2AutonomousSearchAverageSizeOfHeap=0
%%%mzn-stat: 2AutonomousSearchNumAssignedPredicatesEncountered=0
%%%mzn-stat-end
maxleg = 519;
succ = array1d(1..20,[2, 4, 5, 3, 7, 1, 8, 10, 11, 9, 12, 19, 15, 16, 17, 20, 18, 6, 14, 13]);
% time elapsed: 4.30 s
----------
%%%mzn-stat: initTime=0.003891634
%%%mzn-stat: objective=490
%%%mzn-stat: nodes=792
%%%mzn-stat: restarts=0
%%%mzn-stat: peakDepth=175
%%%mzn-stat: solveTime=0.022863558
%%%mzn-stat: variables=362
%%%mzn-stat: propagators=246
%%%mzn-stat: failures=140
%%%mzn-stat: propagations=6135
%%%mzn-stat: nogoods=140
%%%mzn-stat: numAtomicConstraintsPropagated=0
%%%mzn-stat: circuitNumber1PropagationsTotal=725
%%%mzn-stat: circuitNumber1CircuitConflicts=98
%%%mzn-stat: circuitNumber1AlldiffConflicts=3
%%%mzn-stat: circuitNumber1TotalFixedEdgesAtConflict=1676
%%%mzn-stat: circuitNumber1NumberOfConflicts=101
%%%mzn-stat: circuitNumber1GacPrunings=1631
%%%mzn-stat: circuitNumber1PropagationsThatGacPruned=373
%%%mzn-stat: circuitNumber1TotalPruningHallSetSize=3752
%%%mzn-stat: circuitNumber1NumberOfPruningExplanations=1631
%%%mzn-stat: circuitNumber1MaxPruningHallSetSize=9
%%%mzn-stat: circuitNumber1TotalSccSizeAtPruning=1728
%%%mzn-stat: circuitNumber1NumberOfSccPruningCalls=373
%%%mzn-stat: circuitNumber1TotalVarsInvolvedInPruning=1288
%%%mzn-stat: circuitNumber1MaxValuesPrunedFromSingleVar=5
%%%mzn-stat: circuitNumber1HallCircuitChecks=610
%%%mzn-stat: circuitNumber1HallCircuitPrunings=63
%%%mzn-stat: circuitNumber1CircuitPreventPrunings=272
%%%mzn-stat: AverageConflictSize=7.328571428571428
%%%mzn-stat: NumUnitNogoodsLearned=0
%%%mzn-stat: AverageLearnedNogoodLength=17.864285714285714
%%%mzn-stat: AverageBacktrackAmount=0
%%%mzn-stat: AverageLbd=9.592857142857143
%%%mzn-stat: 2AutonomousSearchNumBackupCalled=585
%%%mzn-stat: 2AutonomousSearchNumPredicatesRemoved=0
%%%mzn-stat: 2AutonomousSearchNumCalls=589
%%%mzn-stat: 2AutonomousSearchNumPredicatesAdded=322
%%%mzn-stat: 2AutonomousSearchAverageSizeOfHeap=0.5466893039049237
%%%mzn-stat: 2AutonomousSearchNumAssignedPredicatesEncountered=322
%%%mzn-stat-end
maxleg = 490;
succ = array1d(1..20,[2, 4, 5, 3, 7, 1, 8, 13, 10, 14, 6, 9, 20, 16, 17, 19, 18, 12, 11, 15]);
% time elapsed: 4.30 s
----------
%%%mzn-stat: initTime=0.003891634
%%%mzn-stat: objective=487
%%%mzn-stat: nodes=938
%%%mzn-stat: restarts=0
%%%mzn-stat: peakDepth=175
%%%mzn-stat: solveTime=0.023557379
%%%mzn-stat: variables=362
%%%mzn-stat: propagators=246
%%%mzn-stat: failures=140
%%%mzn-stat: propagations=6560
%%%mzn-stat: nogoods=140
%%%mzn-stat: numAtomicConstraintsPropagated=0
%%%mzn-stat: circuitNumber1PropagationsTotal=750
%%%mzn-stat: circuitNumber1CircuitConflicts=98
%%%mzn-stat: circuitNumber1AlldiffConflicts=3
%%%mzn-stat: circuitNumber1TotalFixedEdgesAtConflict=1676
%%%mzn-stat: circuitNumber1NumberOfConflicts=101
%%%mzn-stat: circuitNumber1GacPrunings=1688
%%%mzn-stat: circuitNumber1PropagationsThatGacPruned=385
%%%mzn-stat: circuitNumber1TotalPruningHallSetSize=3819
%%%mzn-stat: circuitNumber1NumberOfPruningExplanations=1688
%%%mzn-stat: circuitNumber1MaxPruningHallSetSize=9
%%%mzn-stat: circuitNumber1TotalSccSizeAtPruning=1748
%%%mzn-stat: circuitNumber1NumberOfSccPruningCalls=385
%%%mzn-stat: circuitNumber1TotalVarsInvolvedInPruning=1342
%%%mzn-stat: circuitNumber1MaxValuesPrunedFromSingleVar=5
%%%mzn-stat: circuitNumber1HallCircuitChecks=633
%%%mzn-stat: circuitNumber1HallCircuitPrunings=65
%%%mzn-stat: circuitNumber1CircuitPreventPrunings=280
%%%mzn-stat: AverageConflictSize=7.328571428571428
%%%mzn-stat: NumUnitNogoodsLearned=0
%%%mzn-stat: AverageLearnedNogoodLength=17.864285714285714
%%%mzn-stat: AverageBacktrackAmount=0
%%%mzn-stat: AverageLbd=9.592857142857143
%%%mzn-stat: 2AutonomousSearchNumBackupCalled=718
%%%mzn-stat: 2AutonomousSearchNumPredicatesRemoved=0
%%%mzn-stat: 2AutonomousSearchNumCalls=723
%%%mzn-stat: 2AutonomousSearchNumPredicatesAdded=322
%%%mzn-stat: 2AutonomousSearchAverageSizeOfHeap=0.8907330567081605
%%%mzn-stat: 2AutonomousSearchNumAssignedPredicatesEncountered=644
%%%mzn-stat-end
maxleg = 487;
succ = array1d(1..20,[2, 4, 7, 3, 8, 1, 5, 13, 10, 14, 6, 9, 20, 16, 17, 19, 18, 12, 11, 15]);
% time elapsed: 4.30 s
----------
%%%mzn-stat: initTime=0.003891634
%%%mzn-stat: objective=460
%%%mzn-stat: nodes=1079
%%%mzn-stat: restarts=0
%%%mzn-stat: peakDepth=175
%%%mzn-stat: solveTime=0.024251189
%%%mzn-stat: variables=362
%%%mzn-stat: propagators=246
%%%mzn-stat: failures=140
%%%mzn-stat: propagations=7004
%%%mzn-stat: nogoods=140
%%%mzn-stat: numAtomicConstraintsPropagated=0
%%%mzn-stat: circuitNumber1PropagationsTotal=777
%%%mzn-stat: circuitNumber1CircuitConflicts=98
%%%mzn-stat: circuitNumber1AlldiffConflicts=3
%%%mzn-stat: circuitNumber1TotalFixedEdgesAtConflict=1676
%%%mzn-stat: circuitNumber1NumberOfConflicts=101
%%%mzn-stat: circuitNumber1GacPrunings=1746
%%%mzn-stat: circuitNumber1PropagationsThatGacPruned=399
%%%mzn-stat: circuitNumber1TotalPruningHallSetSize=3883
%%%mzn-stat: circuitNumber1NumberOfPruningExplanations=1746
%%%mzn-stat: circuitNumber1MaxPruningHallSetSize=9
%%%mzn-stat: circuitNumber1TotalSccSizeAtPruning=1769
%%%mzn-stat: circuitNumber1NumberOfSccPruningCalls=399
%%%mzn-stat: circuitNumber1TotalVarsInvolvedInPruning=1397
%%%mzn-stat: circuitNumber1MaxValuesPrunedFromSingleVar=5
%%%mzn-stat: circuitNumber1HallCircuitChecks=657
%%%mzn-stat: circuitNumber1HallCircuitPrunings=67
%%%mzn-stat: circuitNumber1CircuitPreventPrunings=289
%%%mzn-stat: AverageConflictSize=7.328571428571428
%%%mzn-stat: NumUnitNogoodsLearned=0
%%%mzn-stat: AverageLearnedNogoodLength=17.864285714285714
%%%mzn-stat: AverageBacktrackAmount=0
%%%mzn-stat: AverageLbd=9.592857142857143
%%%mzn-stat: 2AutonomousSearchNumBackupCalled=846
%%%mzn-stat: 2AutonomousSearchNumPredicatesRemoved=0
%%%mzn-stat: 2AutonomousSearchNumCalls=852
%%%mzn-stat: 2AutonomousSearchNumPredicatesAdded=322
%%%mzn-stat: 2AutonomousSearchAverageSizeOfHeap=1.1338028169014085
%%%mzn-stat: 2AutonomousSearchNumAssignedPredicatesEncountered=966
%%%mzn-stat-end
maxleg = 460;
succ = array1d(1..20,[2, 4, 7, 3, 8, 1, 5, 13, 10, 14, 9, 6, 20, 16, 17, 19, 18, 11, 12, 15]);
% time elapsed: 4.30 s
----------
%%%mzn-stat: initTime=0.003891634
%%%mzn-stat: objective=410
%%%mzn-stat: nodes=1201
%%%mzn-stat: restarts=0
%%%mzn-stat: peakDepth=175
%%%mzn-stat: solveTime=0.024968892
%%%mzn-stat: variables=362
%%%mzn-stat: propagators=246
%%%mzn-stat: failures=140
%%%mzn-stat: propagations=7455
%%%mzn-stat: nogoods=140
%%%mzn-stat: numAtomicConstraintsPropagated=0
%%%mzn-stat: circuitNumber1PropagationsTotal=805
%%%mzn-stat: circuitNumber1CircuitConflicts=98
%%%mzn-stat: circuitNumber1AlldiffConflicts=3
%%%mzn-stat: circuitNumber1TotalFixedEdgesAtConflict=1676
%%%mzn-stat: circuitNumber1NumberOfConflicts=101
%%%mzn-stat: circuitNumber1GacPrunings=1804
%%%mzn-stat: circuitNumber1PropagationsThatGacPruned=412
%%%mzn-stat: circuitNumber1TotalPruningHallSetSize=4008
%%%mzn-stat: circuitNumber1NumberOfPruningExplanations=1804
%%%mzn-stat: circuitNumber1MaxPruningHallSetSize=13
%%%mzn-stat: circuitNumber1TotalSccSizeAtPruning=1838
%%%mzn-stat: circuitNumber1NumberOfSccPruningCalls=412
%%%mzn-stat: circuitNumber1TotalVarsInvolvedInPruning=1447
%%%mzn-stat: circuitNumber1MaxValuesPrunedFromSingleVar=5
%%%mzn-stat: circuitNumber1HallCircuitChecks=683
%%%mzn-stat: circuitNumber1HallCircuitPrunings=69
%%%mzn-stat: circuitNumber1CircuitPreventPrunings=302
%%%mzn-stat: AverageConflictSize=7.328571428571428
%%%mzn-stat: NumUnitNogoodsLearned=0
%%%mzn-stat: AverageLearnedNogoodLength=17.864285714285714
%%%mzn-stat: AverageBacktrackAmount=0
%%%mzn-stat: AverageLbd=9.592857142857143
%%%mzn-stat: 2AutonomousSearchNumBackupCalled=957
%%%mzn-stat: 2AutonomousSearchNumPredicatesRemoved=0
%%%mzn-stat: 2AutonomousSearchNumCalls=964
%%%mzn-stat: 2AutonomousSearchNumPredicatesAdded=322
%%%mzn-stat: 2AutonomousSearchAverageSizeOfHeap=1.3360995850622406
%%%mzn-stat: 2AutonomousSearchNumAssignedPredicatesEncountered=1288
%%%mzn-stat-end
maxleg = 410;
succ = array1d(1..20,[2, 4, 7, 3, 8, 12, 5, 13, 10, 14, 1, 9, 20, 16, 17, 19, 18, 6, 11, 15]);
% time elapsed: 4.30 s
----------
%%%mzn-stat: initTime=0.003891634
%%%mzn-stat: objective=368
%%%mzn-stat: nodes=1319
%%%mzn-stat: restarts=0
%%%mzn-stat: peakDepth=175
%%%mzn-stat: solveTime=0.026219488
%%%mzn-stat: variables=362
%%%mzn-stat: propagators=246
%%%mzn-stat: failures=143
%%%mzn-stat: propagations=8010
%%%mzn-stat: nogoods=143
%%%mzn-stat: numAtomicConstraintsPropagated=0
%%%mzn-stat: circuitNumber1PropagationsTotal=847
%%%mzn-stat: circuitNumber1CircuitConflicts=100
%%%mzn-stat: circuitNumber1AlldiffConflicts=3
%%%mzn-stat: circuitNumber1TotalFixedEdgesAtConflict=1710
%%%mzn-stat: circuitNumber1NumberOfConflicts=103
%%%mzn-stat: circuitNumber1GacPrunings=1883
%%%mzn-stat: circuitNumber1PropagationsThatGacPruned=432
%%%mzn-stat: circuitNumber1TotalPruningHallSetSize=4169
%%%mzn-stat: circuitNumber1NumberOfPruningExplanations=1883
%%%mzn-stat: circuitNumber1MaxPruningHallSetSize=13
%%%mzn-stat: circuitNumber1TotalSccSizeAtPruning=1925
%%%mzn-stat: circuitNumber1NumberOfSccPruningCalls=432
%%%mzn-stat: circuitNumber1TotalVarsInvolvedInPruning=1519
%%%mzn-stat: circuitNumber1MaxValuesPrunedFromSingleVar=5
%%%mzn-stat: circuitNumber1HallCircuitChecks=728
%%%mzn-stat: circuitNumber1HallCircuitPrunings=75
%%%mzn-stat: circuitNumber1CircuitPreventPrunings=319
%%%mzn-stat: AverageConflictSize=7.489510489510489
%%%mzn-stat: NumUnitNogoodsLearned=0
%%%mzn-stat: AverageLearnedNogoodLength=18.02097902097902
%%%mzn-stat: AverageBacktrackAmount=0
%%%mzn-stat: AverageLbd=9.594405594405595
%%%mzn-stat: 2AutonomousSearchNumBackupCalled=1058
%%%mzn-stat: 2AutonomousSearchNumPredicatesRemoved=0
%%%mzn-stat: 2AutonomousSearchNumCalls=1066
%%%mzn-stat: 2AutonomousSearchNumPredicatesAdded=462
%%%mzn-stat: 2AutonomousSearchAverageSizeOfHeap=1.5450281425891181
%%%mzn-stat: 2AutonomousSearchNumAssignedPredicatesEncountered=1647
%%%mzn-stat-end
maxleg = 368;
succ = array1d(1..20,[2, 4, 7, 3, 8, 12, 5, 13, 11, 9, 1, 19, 20, 10, 17, 14, 18, 6, 16, 15]);
% time elapsed: 4.30 s
----------
==========
% time elapsed: 4.30 s
%%%mzn-stat: initTime=0.003891634
%%%mzn-stat: objective=368
%%%mzn-stat: nodes=1319
%%%mzn-stat: restarts=0
%%%mzn-stat: peakDepth=175
%%%mzn-stat: solveTime=0.026766754
%%%mzn-stat: variables=362
%%%mzn-stat: propagators=246
%%%mzn-stat: failures=144
%%%mzn-stat: propagations=8127
%%%mzn-stat: nogoods=144
%%%mzn-stat: numAtomicConstraintsPropagated=0
%%%mzn-stat: circuitNumber1PropagationsTotal=848
%%%mzn-stat: circuitNumber1CircuitConflicts=100
%%%mzn-stat: circuitNumber1AlldiffConflicts=3
%%%mzn-stat: circuitNumber1TotalFixedEdgesAtConflict=1710
%%%mzn-stat: circuitNumber1NumberOfConflicts=103
%%%mzn-stat: circuitNumber1GacPrunings=1895
%%%mzn-stat: circuitNumber1PropagationsThatGacPruned=433
%%%mzn-stat: circuitNumber1TotalPruningHallSetSize=4289
%%%mzn-stat: circuitNumber1NumberOfPruningExplanations=1895
%%%mzn-stat: circuitNumber1MaxPruningHallSetSize=19
%%%mzn-stat: circuitNumber1TotalSccSizeAtPruning=1962
%%%mzn-stat: circuitNumber1NumberOfSccPruningCalls=433
%%%mzn-stat: circuitNumber1TotalVarsInvolvedInPruning=1526
%%%mzn-stat: circuitNumber1MaxValuesPrunedFromSingleVar=6
%%%mzn-stat: circuitNumber1HallCircuitChecks=729
%%%mzn-stat: circuitNumber1HallCircuitPrunings=75
%%%mzn-stat: circuitNumber1CircuitPreventPrunings=320
%%%mzn-stat: AverageConflictSize=7.451388888888889
%%%mzn-stat: NumUnitNogoodsLearned=1
%%%mzn-stat: AverageLearnedNogoodLength=17.90277777777778
%%%mzn-stat: AverageBacktrackAmount=0
%%%mzn-stat: AverageLbd=9.534722222222221
%%%mzn-stat: 2AutonomousSearchNumBackupCalled=1058
%%%mzn-stat: 2AutonomousSearchNumPredicatesRemoved=0
%%%mzn-stat: 2AutonomousSearchNumCalls=1066
%%%mzn-stat: 2AutonomousSearchNumPredicatesAdded=607
%%%mzn-stat: 2AutonomousSearchAverageSizeOfHeap=1.5450281425891181
%%%mzn-stat: 2AutonomousSearchNumAssignedPredicatesEncountered=1647
%%%mzn-stat-end
